B=6;
D=1;
P=10;
S=10;
demands = [2 2 4 3 3 3 1 4 5 5 ];
capacities = [3 1 5 6 7 9 5 3 2 2 ];
dist_start = [1 10 9 6 2 9 5 8 6 8 ];
dist = [10 10 4 8 10 5 4 8 1 3 3 10 6 8 2 1 1 7 4 4 7 3 3 2 7 3 8 4 8 8 8 9 7 1 6 7 5 1 6 5 6 10 7 1 7 10 4 9 6 7 3 4 2 7 7 8 9 7 1 8 4 1 6 10 1 3 8 8 5 6 4 10 5 10 3 4 1 8 2 8 4 6 1 7 2 10 6 2 6 9 9 9 9 6 10 9 8 10 8 3 ];
